n_res = 4;
rc = [ 0, 0, 0, 0 ];
n_tasks = 30;
d = [ 7, 1, 7, 2, 8, 8, 4, 5, 3, 4, 1, 9, 9, 3, 4, 2, 7, 7, 7, 10, 1, 7, 9, 7, 9, 8, 3, 1, 9, 8 ];
rr = [| 0, 0, 0, 0, 0, 0, 0, 0, 0, 0, 0, 0, 0, 0, 0, 0, 0, 0, 0, 0, 0, 0, 0, 0, 0, 0, 0, 0, 0, 0
      | 0, 0, 0, 0, 0, 0, 0, 0, 0, 0, 0, 0, 0, 0, 0, 0, 0, 0, 0, 0, 0, 0, 0, 0, 0, 0, 0, 0, 0, 0
      | 0, 0, 0, 0, 0, 0, 0, 0, 0, 0, 0, 0, 0, 0, 0, 0, 0, 0, 0, 0, 0, 0, 0, 0, 0, 0, 0, 0, 0, 0
      | 0, 0, 0, 0, 0, 0, 0, 0, 0, 0, 0, 0, 0, 0, 0, 0, 0, 0, 0, 0, 0, 0, 0, 0, 0, 0, 0, 0, 0, 0 |];
suc = [ { 4, 5, 10 },
       { 13, 16, 22 },
       { 4, 15, 25 },
       { 6, 7, 8 },
       { 6, 9, 12 },
       { 11, 14, 22 },
       { 9, 12, 13 },
       { 14, 18, 27 },
       { 16, 17, 21 },
       { 15, 22, 28 },
       { 16, 19 },
       { 18, 26, 27 },
       { 14, 18, 30 },
       { 17, 21, 23 },
       { 19, 20, 24 },
       { 24, 28 },
       { 20, 26 },
       { 19, 20 },
       { 21, 23 },
       { 29 },
       { 29 },
       { 23, 24 },
       { 29 },
       { 30 },
       { 26, 27 },
       { 28 },
       { 30 },
       {  },
       {  },
       {  } ];
